# Force-field settings file generated on 2024-06-27 via gen_data.py, version 1 May 2020

# ~~~~~Non-bonded~~~~~
# e.g., pair_coeff type eps sig
pair_coeff 1   1    0.20000  6.56000  0.47882 19.68000 35.00000 
pair_coeff 2   2    0.20000  6.36000  0.30235 19.08000 35.00000 
pair_coeff 3   3    0.20000  6.36000  0.74353 19.08000  0.00000 
pair_coeff 4   4    0.20000  6.78000  0.92000 20.34000  0.00000 
pair_coeff 5   5    0.20000  6.02000  0.47882 18.06000  0.00000 
pair_coeff 6   6    0.20000  5.62000  0.50824 16.86000  0.00000 
pair_coeff 7   7    0.20000  6.18000  0.64059 18.54000  0.00000 
pair_coeff 8   8    0.20000  5.04000  0.52294 15.12000  0.00000 
pair_coeff 9   9    0.20000  5.92000 -0.08000 17.76000 35.00000 

pair_coeff 1   2    0.20000  6.46000  0.39059 19.38000 35.00000 
pair_coeff 1   3    0.20000  6.46000  0.61118 19.38000  0.00000 
pair_coeff 1   4    0.20000  6.67000  0.69941 20.01000  0.00000 
pair_coeff 1   5    0.20000  6.29000  0.47882 18.87000  0.00000 
pair_coeff 1   6    0.20000  6.09000  0.49353 18.27000  0.00000 
pair_coeff 1   7    0.20000  6.37000  0.55971 19.11000  0.00000 
pair_coeff 1   8    0.20000  5.80000  0.50088 17.40000  0.00000 
pair_coeff 1   9    0.20000  6.24000  0.19941 18.72000 35.00000 

pair_coeff 2   3    0.20000  6.36000  0.52294 19.08000  0.00000 
pair_coeff 2   4    0.20000  6.57000  0.61118 19.71000  0.00000 
pair_coeff 2   5    0.20000  6.19000  0.39059 18.57000  0.00000 
pair_coeff 2   6    0.20000  5.99000  0.40530 17.97000  0.00000 
pair_coeff 2   7    0.20000  6.27000  0.47147 18.81000  0.00000 
pair_coeff 2   8    0.20000  5.70000  0.41265 17.10000  0.00000 
pair_coeff 2   9    0.20000  6.14000  0.11118 18.42000 35.00000 

pair_coeff 3   4    0.20000  6.57000  0.83176 19.71000  0.00000 
pair_coeff 3   5    0.20000  6.19000  0.61118 18.57000  0.00000 
pair_coeff 3   6    0.20000  5.99000  0.62588 17.97000  0.00000 
pair_coeff 3   7    0.20000  6.27000  0.69206 18.81000  0.00000 
pair_coeff 3   8    0.20000  5.70000  0.63324 17.10000  0.00000 
pair_coeff 3   9    0.20000  6.14000  0.33176 18.42000  0.00000 

pair_coeff 4   5    0.20000  6.40000  0.69941 19.20000  0.00000 
pair_coeff 4   6    0.20000  6.20000  0.71412 18.60000  0.00000 
pair_coeff 4   7    0.20000  6.48000  0.78029 19.44000  0.00000 
pair_coeff 4   8    0.20000  5.91000  0.72147 17.73000  0.00000 
pair_coeff 4   9    0.20000  6.35000  0.42000 19.05000  0.00000 

pair_coeff 5   6    0.20000  5.82000  0.49353 17.46000  0.00000 
pair_coeff 5   7    0.20000  6.10000  0.55971 18.30000  0.00000 
pair_coeff 5   8    0.20000  5.53000  0.50088 16.59000  0.00000 
pair_coeff 5   9    0.20000  5.97000  0.19941 17.91000  0.00000 

pair_coeff 6   7    0.20000  5.90000  0.57441 17.70000  0.00000 
pair_coeff 6   8    0.20000  5.33000  0.51559 15.99000  0.00000 
pair_coeff 6   9    0.20000  5.77000  0.21412 17.31000  0.00000 

pair_coeff 7   8    0.20000  5.61000  0.58177 16.83000  0.00000 
pair_coeff 7   9    0.20000  6.05000  0.28029 18.15000  0.00000 

pair_coeff 8   9    0.20000  5.48000  0.22147 16.44000  0.00000 


# ~~~~~BONDS~~~~~
# e.g., bond_coeff type k  r0 
bond_coeff  1 harmonic   10.000  3.820
bond_coeff  2 harmonic   10.000  3.820
bond_coeff  3 harmonic   10.000  3.820
bond_coeff  4 harmonic   10.000  3.820
bond_coeff  5 harmonic   10.000  3.820
bond_coeff  6 harmonic   10.000  3.820
bond_coeff  7 harmonic   10.000  3.820
bond_coeff  8 harmonic   10.000  3.820
bond_coeff  9 harmonic   10.000  3.820
bond_coeff 10 harmonic   10.000  3.820
bond_coeff 11 harmonic   10.000  3.820
bond_coeff 12 harmonic   10.000  3.820
bond_coeff 13 harmonic   10.000  3.820
bond_coeff 14 harmonic   10.000  3.820
bond_coeff 15 harmonic   10.000  3.820

# ~~~~~ANGLES~~~~~
# e.g., angle_coeff type k(kcal/mol/rad**2)  theta_0 (degrees)

# ~~~~~DIHEDRALS~~~~~
# e.g., dihedral_coeff type k(kcal/mol) n d weighting_factor
